50 9984
815 7250 8767 4473 884 6715 8636 2858 4957 8917 468 4992 548 344 8586 8780 5112 9831 466 10844 3319 8804 6134 970 7252 985 4811 6379 8350 699 5995 2524 1 10008 6236 6558 1042 458 6164 2654 6548 7326 1290 9968 2874 9721 8970 1173 7976 5139 
485 6326 9248 5421 322 5795 8043 2845 4955 9252 1009 5901 1122 1094 8738 8574 5715 8882 1367 9984 3299 9433 5682 72 7874 138 3856 7145 7995 1529 6199 3277 97 9719 5242 6107 1122 1070 6098 3600 6645 7267 1972 9895 3213 9748 9487 1923 7029 5674 
